p edge 50 120
e 1 13
e 1 31
e 1 47
e 2 12
e 2 28
e 2 37
e 2 45
e 3 4
e 3 22
e 3 26
e 3 45
e 4 11
e 4 16
e 4 19
e 4 41
e 4 43
e 5 18
e 5 19
e 5 21
e 5 39
e 5 49
e 6 18
e 6 21
e 7 13
e 7 17
e 7 20
e 7 29
e 7 39
e 7 46
e 8 11
e 8 25
e 8 31
e 8 38
e 9 14
e 9 15
e 9 17
e 9 20
e 9 21
e 9 22
e 9 39
e 10 19
e 10 31
e 10 39
e 10 48
e 11 16
e 11 20
e 11 30
e 11 33
e 11 41
e 12 27
e 12 39
e 13 15
e 13 21
e 13 50
e 14 16
e 14 36
e 14 44
e 14 47
e 15 36
e 16 21
e 17 23
e 17 39
e 18 24
e 18 30
e 18 41
e 18 43
e 18 48
e 19 32
e 19 33
e 19 38
e 20 26
e 20 33
e 20 44
e 21 27
e 21 31
e 21 37
e 21 42
e 21 48
e 22 30
e 22 36
e 22 45
e 22 46
e 23 27
e 23 28
e 23 34
e 23 35
e 23 40
e 24 32
e 24 35
e 24 37
e 24 49
e 25 32
e 25 34
e 25 40
e 25 43
e 26 30
e 26 33
e 27 49
e 29 47
e 30 36
e 30 40
e 31 39
e 31 41
e 31 50
e 32 33
e 32 39
e 32 40
e 32 47
e 34 43
e 34 48
e 34 49
e 35 36
e 35 37
e 35 45
e 36 40
e 37 50
e 39 45
e 42 46
e 43 45
e 44 50
